
Gurobi 8.1.0 (win64, Python) logging started 11/29/18 11:24:48


Gurobi 8.1.0 (win64, Python) logging started 11/29/18 11:38:17


Gurobi 8.1.0 (win64, Python) logging started 11/29/18 11:39:12


Gurobi 8.1.0 (win64, Python) logging started 11/29/18 11:42:58

Academic license - for non-commercial use only
Optimize a model with 65197 rows, 2080035 columns and 107646122 nonzeros
Variable types: 0 continuous, 2080035 integer (2080035 binary)
Coefficient statistics:
  Matrix range     [1e+00, 1e+00]
  Objective range  [1e+00, 3e+03]
  Bounds range     [1e+00, 1e+00]
  RHS range        [1e+00, 4e+00]
Found heuristic solution: objective 6.839762e+08
Found heuristic solution: objective 6.839817e+08
Presolve removed 75 rows and 0 columns (presolve time = 6s) ...
Presolve removed 300 rows and 1333960 columns (presolve time = 18s) ...
Presolve removed 300 rows and 1333960 columns (presolve time = 28s) ...
Presolve removed 300 rows and 1333960 columns (presolve time = 40s) ...
Presolve removed 40966 rows and 1334056 columns (presolve time = 83s) ...
Presolve removed 40966 rows and 1334056 columns (presolve time = 105s) ...
Presolve removed 40966 rows and 1334056 columns (presolve time = 113s) ...
Presolve removed 40966 rows and 1334056 columns (presolve time = 115s) ...
Presolve removed 40966 rows and 1334056 columns (presolve time = 120s) ...
Presolve removed 40966 rows and 1334056 columns (presolve time = 125s) ...
Presolve removed 40966 rows and 1334056 columns (presolve time = 130s) ...
Presolve removed 40966 rows and 1334056 columns (presolve time = 135s) ...
Presolve removed 40966 rows and 1334056 columns (presolve time = 140s) ...
Presolve removed 40966 rows and 1334056 columns (presolve time = 145s) ...
Presolve removed 40966 rows and 1334056 columns (presolve time = 150s) ...
Presolve removed 40966 rows and 1334056 columns (presolve time = 155s) ...
Presolve removed 40966 rows and 1334056 columns (presolve time = 160s) ...
Presolve removed 40966 rows and 1334056 columns (presolve time = 165s) ...
Presolve removed 40966 rows and 1334056 columns (presolve time = 170s) ...
Presolve removed 40966 rows and 1334056 columns (presolve time = 175s) ...
Presolve removed 40966 rows and 1334056 columns (presolve time = 180s) ...
Presolve removed 41473 rows and 1334056 columns (presolve time = 186s) ...
Presolve removed 41473 rows and 1334056 columns (presolve time = 202s) ...
Presolve removed 41473 rows and 1334056 columns (presolve time = 216s) ...
Presolve removed 41473 rows and 1334056 columns (presolve time = 220s) ...
Presolve removed 41628 rows and 1334056 columns (presolve time = 255s) ...
Presolve removed 41639 rows and 1334056 columns (presolve time = 268s) ...
Presolve removed 41145 rows and 1333562 columns
Presolve time: 268.41s
Presolved: 24052 rows, 746473 columns, 45773037 nonzeros
Variable types: 0 continuous, 746473 integer (746473 binary)

Root simplex log...

Iteration    Objective       Primal Inf.    Dual Inf.      Time
       0    7.0992122e+08   1.493490e+05   0.000000e+00    280s
    7674    6.8604850e+08   3.185290e+05   0.000000e+00    285s
   13227    6.8532578e+08   2.634250e+04   0.000000e+00    290s
   24868    6.8491945e+08   1.907000e+04   0.000000e+00    296s
   27896    6.8457493e+08   1.418850e+04   0.000000e+00    301s
   33352    6.8448458e+08   8.402000e+03   0.000000e+00    305s
   37188    6.8441945e+08   1.420375e+04   0.000000e+00    310s
   37788    6.8441944e+08   0.000000e+00   0.000000e+00    313s

Root relaxation: objective 6.844194e+08, 37788 iterations, 35.90 seconds
Total elapsed time = 315.73s
Total elapsed time = 320.19s

    Nodes    |    Current Node    |     Objective Bounds      |     Work
 Expl Unexpl |  Obj  Depth IntInf | Incumbent    BestBd   Gap | It/Node Time

     0     0 6.8442e+08    0  953 6.8398e+08 6.8442e+08  0.06%     -  341s
H    0     0                    6.841277e+08 6.8442e+08  0.04%     -  369s
H    0     0                    6.841298e+08 6.8442e+08  0.04%     -  468s

Gurobi 8.1.0 (win64, Python) logging started 11/29/18 15:48:57

Academic license - for non-commercial use only
Optimize a model with 45502 rows, 747177 columns and 102496631 nonzeros
Variable types: 0 continuous, 747177 integer (747177 binary)
Coefficient statistics:
  Matrix range     [1e+00, 1e+00]
  Objective range  [1e+00, 3e+03]
  Bounds range     [1e+00, 1e+00]
  RHS range        [1e+00, 4e+00]
Found heuristic solution: objective 30659.000000
Found heuristic solution: objective 36140.000000
Presolve removed 15 rows and 0 columns (presolve time = 6s) ...
Presolve removed 68 rows and 1102 columns (presolve time = 17s) ...
Presolve removed 68 rows and 1102 columns (presolve time = 24s) ...
Presolve removed 68 rows and 1102 columns (presolve time = 33s) ...
Presolve removed 21271 rows and 1198 columns (presolve time = 68s) ...
Presolve removed 21271 rows and 1198 columns (presolve time = 87s) ...
Presolve removed 21271 rows and 1198 columns (presolve time = 90s) ...
Presolve removed 21271 rows and 1198 columns (presolve time = 95s) ...
Presolve removed 21271 rows and 1198 columns (presolve time = 100s) ...
Presolve removed 21271 rows and 1198 columns (presolve time = 105s) ...
Presolve removed 21271 rows and 1198 columns (presolve time = 110s) ...
Presolve removed 21271 rows and 1198 columns (presolve time = 115s) ...
Presolve removed 21271 rows and 1198 columns (presolve time = 120s) ...
Presolve removed 21271 rows and 1198 columns (presolve time = 125s) ...
Presolve removed 21271 rows and 1198 columns (presolve time = 130s) ...
Presolve removed 21271 rows and 1198 columns (presolve time = 135s) ...
Presolve removed 21271 rows and 1198 columns (presolve time = 140s) ...
Presolve removed 21271 rows and 1198 columns (presolve time = 145s) ...
Presolve removed 21271 rows and 1198 columns (presolve time = 150s) ...
Presolve removed 21271 rows and 1198 columns (presolve time = 155s) ...
Presolve removed 21271 rows and 1198 columns (presolve time = 160s) ...
Presolve removed 21778 rows and 1198 columns (presolve time = 175s) ...
Presolve removed 21778 rows and 1198 columns (presolve time = 189s) ...
Presolve removed 21778 rows and 1198 columns (presolve time = 190s) ...
Presolve removed 21933 rows and 1198 columns (presolve time = 226s) ...
Presolve removed 21944 rows and 1198 columns (presolve time = 238s) ...
Presolve removed 21450 rows and 704 columns
Presolve time: 238.15s
Presolved: 24052 rows, 746473 columns, 45773037 nonzeros
Variable types: 0 continuous, 746473 integer (746473 binary)

Root simplex log...

Iteration    Objective       Primal Inf.    Dual Inf.      Time
       0    2.5975712e+07   1.493490e+05   0.000000e+00    250s
    2163    2.6819660e+06   1.114860e+05   0.000000e+00    250s
    7654    2.1026540e+06   1.415600e+05   0.000000e+00    255s
   12837    1.5502140e+06   1.336650e+05   0.000000e+00    260s
   24872    1.0654700e+06   2.359400e+04   0.000000e+00    265s
   28227    1.0514820e+06   1.887600e+04   0.000000e+00    273s
   29597    8.7737100e+05   1.975500e+04   0.000000e+00    275s
   33581    5.9199500e+05   3.239900e+04   0.000000e+00    280s
   39066    4.9077750e+05   8.594333e+03   0.000000e+00    285s
   40449    4.7392600e+05   0.000000e+00   0.000000e+00    289s

Root relaxation: objective 4.739260e+05, 40449 iterations, 42.61 seconds
Total elapsed time = 291.73s

    Nodes    |    Current Node    |     Objective Bounds      |     Work
 Expl Unexpl |  Obj  Depth IntInf | Incumbent    BestBd   Gap | It/Node Time

     0     0 473926.000    0  956 36140.0000 473926.000  1211%     -  315s
H    0     0                    181937.00000 473926.000   160%     -  342s
H    0     0                    183188.00000 473926.000   159%     -  384s
H    0     0                    185137.00000 473926.000   156%     -  477s

Gurobi 8.1.0 (win64, Python) logging started 11/29/18 16:26:14

Academic license - for non-commercial use only

Gurobi 8.1.0 (win64, Python) logging started 11/29/18 16:29:14

Academic license - for non-commercial use only

Gurobi 8.1.0 (win64, Python) logging started 11/29/18 16:29:35

Academic license - for non-commercial use only
